(set-logic QF_LIA)
(declare-fun x0 () Int)
(declare-fun x1 () Int)
(declare-fun x2 () Int)
(declare-fun x3 () Int)
(declare-fun x4 () Int)
(declare-fun x5 () Int)
(declare-fun x6 () Int)
(declare-fun x7 () Int)
(declare-fun x8 () Int)
(declare-fun x9 () Int)
(declare-fun A0 () Bool)
(declare-fun A1 () Bool)
(declare-fun A2 () Bool)
(declare-fun A3 () Bool)
(declare-fun A4 () Bool)
(declare-fun A5 () Bool)
(declare-fun A6 () Bool)
(declare-fun A7 () Bool)
(declare-fun A9 () Bool)
(assert (let ((.def_0 (not A4))) (let ((.def_1 (* 1 x5))) (let ((.def_2 (* (- 1) x8))) (let ((.def_3 (+ .def_2 .def_1))) (let ((.def_4 (< .def_3 1))) (let ((.def_5 (not .def_4))) (let ((.def_6 (or .def_5 .def_0))) (let ((.def_7 (* 1 x1))) (let ((.def_8 (* 1 x8))) (let ((.def_9 (+ .def_8 .def_7))) (let ((.def_10 (< .def_9 1))) (let ((.def_11 (not .def_10))) (let ((.def_12 (or A6 .def_11))) (let ((.def_13 (not .def_12))) (let ((.def_14 (and .def_13 .def_6))) (let ((.def_15 (not .def_14))) (let ((.def_16 (not A0))) (let ((.def_17 (* (- 1) x5))) (let ((.def_18 (+ .def_17 .def_2))) (let ((.def_19 (< .def_18 1))) (let ((.def_20 (not .def_19))) (let ((.def_21 (or .def_20 .def_16))) (let ((.def_22 (not .def_21))) (let ((.def_23 (* (- 1) x4))) (let ((.def_24 (* (- 1) x7))) (let ((.def_25 (+ .def_24 .def_23))) (let ((.def_26 (< .def_25 (- 1)))) (let ((.def_27 (or .def_16 .def_26))) (let ((.def_28 (and .def_27 .def_22))) (let ((.def_29 (or .def_28 .def_15))) (let ((.def_30 (not .def_29))) (let ((.def_31 (not A7))) (let ((.def_32 (or .def_0 .def_31))) (let ((.def_33 (not .def_32))) (let ((.def_34 (not A3))) (let ((.def_35 (not A1))) (let ((.def_36 (and .def_35 .def_34))) (let ((.def_37 (or .def_36 .def_33))) (let ((.def_38 (and .def_31 A6))) (let ((.def_39 (* 1 x0))) (let ((.def_40 (* 1 x6))) (let ((.def_41 (+ .def_40 .def_39))) (let ((.def_42 (< .def_41 1))) (let ((.def_43 (not .def_42))) (let ((.def_44 (and A3 .def_43))) (let ((.def_45 (not .def_44))) (let ((.def_46 (or .def_45 .def_38))) (let ((.def_47 (and .def_46 .def_37))) (let ((.def_48 (and .def_47 .def_30))) (let ((.def_49 (= .def_35 A4))) (let ((.def_50 (not .def_49))) (let ((.def_51 (not A2))) (let ((.def_52 (* (- 1) x9))) (let ((.def_53 (+ .def_23 .def_52))) (let ((.def_54 (< .def_53 1))) (let ((.def_55 (not .def_54))) (let ((.def_56 (or .def_55 .def_51))) (let ((.def_57 (or .def_56 .def_50))) (let ((.def_58 (not .def_57))) (let ((.def_59 (not A5))) (let ((.def_60 (* 1 x2))) (let ((.def_61 (< .def_60 1))) (let ((.def_62 (= .def_61 .def_59))) (let ((.def_63 (+ .def_52 .def_2))) (let ((.def_64 (< .def_63 1))) (let ((.def_65 (* 1 x4))) (let ((.def_66 (+ .def_39 .def_65))) (let ((.def_67 (< .def_66 (- 1)))) (let ((.def_68 (or .def_67 .def_64))) (let ((.def_69 (not .def_68))) (let ((.def_70 (or .def_69 .def_62))) (let ((.def_71 (not .def_70))) (let ((.def_72 (or .def_71 .def_58))) (let ((.def_73 (< .def_17 1))) (let ((.def_74 (not .def_73))) (let ((.def_75 (and .def_74 A9))) (let ((.def_76 (not .def_75))) (let ((.def_77 (* (- 1) x2))) (let ((.def_78 (< .def_77 (- 1)))) (let ((.def_79 (not .def_78))) (let ((.def_80 (* 1 x7))) (let ((.def_81 (< .def_80 1))) (let ((.def_82 (not .def_81))) (let ((.def_83 (or .def_82 .def_79))) (let ((.def_84 (and .def_83 .def_76))) (let ((.def_85 (* (- 1) x6))) (let ((.def_86 (+ .def_65 .def_85))) (let ((.def_87 (< .def_86 1))) (let ((.def_88 (or A5 .def_87))) (let ((.def_89 (+ .def_52 .def_7))) (let ((.def_90 (< .def_89 (- 1)))) (let ((.def_91 (not .def_90))) (let ((.def_92 (or .def_91 A9))) (let ((.def_93 (or .def_92 .def_88))) (let ((.def_94 (= .def_93 .def_84))) (let ((.def_95 (not .def_94))) (let ((.def_96 (and .def_95 .def_72))) (let ((.def_97 (not .def_96))) (let ((.def_98 (or .def_97 .def_48))) (let ((.def_99 (<= x9 1))) (let ((.def_100 (<= 0 x9))) (let ((.def_101 (<= x8 1))) (let ((.def_102 (<= 0 x8))) (let ((.def_103 (<= x7 1))) (let ((.def_104 (<= 0 x7))) (let ((.def_105 (<= x6 1))) (let ((.def_106 (<= 0 x6))) (let ((.def_107 (<= x5 1))) (let ((.def_108 (<= 0 x5))) (let ((.def_109 (<= x4 1))) (let ((.def_110 (<= 0 x4))) (let ((.def_111 (<= x3 1))) (let ((.def_112 (<= 0 x3))) (let ((.def_113 (<= x2 1))) (let ((.def_114 (<= 0 x2))) (let ((.def_115 (<= x1 1))) (let ((.def_116 (<= 0 x1))) (let ((.def_117 (<= x0 1))) (let ((.def_118 (<= 0 x0))) (let ((.def_119 (and .def_118 .def_117 .def_116 .def_115 .def_114 .def_113 .def_112 .def_111 .def_110 .def_109 .def_108 .def_107 .def_106 .def_105 .def_104 .def_103 .def_102 .def_101 .def_100 .def_99 .def_98))) .def_119)))))))))))))))))))))))))))))))))))))))))))))))))))))))))))))))))))))))))))))))))))))))))))))))))))))))))))))))))))))))))
(check-sat)
